(declare-const a Real)
(declare-const b Real)
(declare-const c Real)
(assert (= (+ a b c) 3))
(assert (> a 0))
(assert (> b 0))
(assert (> c 0))
(assert (not (<= (+ 48 (pow (+ 4 (pow (+ a b c) 2)) 2) (* -96 (pow (+ (pow a 2) (pow c 2) (* a c)) (/ 1 2))) (* (pow 2 (/ 1 2)) (+ (* -48 b) (* -48 (pow (+ (pow c 2) (* b c)) (/ 1 2))))) (* (pow 2 (/ 1 2)) (+ (* -48 (pow (* a b) (/ 1 2))) (* -48 (pow (+ (pow a 2) (pow b 2)) (/ 1 2)))))) 0)))
(check-sat)
(get-model)
(exit)